p edge 295 294 129
e 1 216
e 2 139
e 3 229
e 3 243
e 4 212
e 4 170
e 4 189
e 4 285
e 5 140
e 6 31
e 7 293
e 8 218
e 9 70
e 9 265
e 10 167
e 10 195
e 10 220
e 10 230
e 11 227
e 12 52
e 13 25
e 13 84
e 14 70
e 15 72
e 16 148
e 17 108
e 17 174
e 17 191
e 18 61
e 18 73
e 18 47
e 19 211
e 20 290
e 20 274
e 21 90
e 21 49
e 22 81
e 22 74
e 23 104
e 23 162
e 23 194
e 23 99
e 24 184
e 25 159
e 25 178
e 26 58
e 26 217
e 26 188
e 27 91
e 27 153
e 27 147
e 27 233
e 28 51
e 28 208
e 28 154
e 29 47
e 29 165
e 29 132
e 29 40
e 30 230
e 31 83
e 31 151
e 31 292
e 31 183
e 32 135
e 33 198
e 33 114
e 34 95
e 34 92
e 34 277
e 35 228
e 35 188
e 36 243
e 36 276
e 36 62
e 37 273
e 38 218
e 39 86
e 40 88
e 40 235
e 41 282
e 41 173
e 42 53
e 43 225
e 43 252
e 43 288
e 43 121
e 44 129
e 44 100
e 44 228
e 45 55
e 46 211
e 46 268
e 46 56
e 48 84
e 48 268
e 49 288
e 50 173
e 50 82
e 51 122
e 51 258
e 52 97
e 52 115
e 52 146
e 53 126
e 53 69
e 54 56
e 54 106
e 55 245
e 55 274
e 55 285
e 55 288
e 56 128
e 56 62
e 57 140
e 57 269
e 57 138
e 58 236
e 58 263
e 59 218
e 59 161
e 60 62
e 63 129
e 64 119
e 64 246
e 65 174
e 66 248
e 66 177
e 66 120
e 67 71
e 67 79
e 67 155
e 67 86
e 68 186
e 69 285
e 70 89
e 72 109
e 72 201
e 74 295
e 75 221
e 76 237
e 76 277
e 77 149
e 77 132
e 78 266
e 78 246
e 80 222
e 80 123
e 81 135
e 81 294
e 82 143
e 82 288
e 83 181
e 85 214
e 86 294
e 87 110
e 87 183
e 87 146
e 89 203
e 90 202
e 92 103
e 93 197
e 94 156
e 96 113
e 96 229
e 98 122
e 99 181
e 100 209
e 101 267
e 102 121
e 102 144
e 105 260
e 106 119
e 107 120
e 109 232
e 110 257
e 111 115
e 112 129
e 114 154
e 116 171
e 117 162
e 118 201
e 119 233
e 120 134
e 120 242
e 123 188
e 123 190
e 124 145
e 124 234
e 124 259
e 124 294
e 125 229
e 126 185
e 127 275
e 127 206
e 128 213
e 128 244
e 130 196
e 130 151
e 131 164
e 131 219
e 131 242
e 131 279
e 132 137
e 133 284
e 134 139
e 136 283
e 138 270
e 141 193
e 142 238
e 142 156
e 143 241
e 144 235
e 146 239
e 147 210
e 148 247
e 149 264
e 150 156
e 151 180
e 152 231
e 154 249
e 154 188
e 156 213
e 157 204
e 157 226
e 157 264
e 158 291
e 160 294
e 161 279
e 161 285
e 163 286
e 163 169
e 166 192
e 166 179
e 168 187
e 168 190
e 169 210
e 170 273
e 171 198
e 172 214
e 172 272
e 173 205
e 175 207
e 175 293
e 175 218
e 176 212
e 177 281
e 179 246
e 180 201
e 182 216
e 182 292
e 183 256
e 184 199
e 186 277
e 189 206
e 190 288
e 191 235
e 191 287
e 193 265
e 193 281
e 196 253
e 197 286
e 199 278
e 200 286
e 203 223
e 208 270
e 210 240
e 215 271
e 215 250
e 216 247
e 217 291
e 221 241
e 223 254
e 223 272
e 223 283
e 224 289
e 224 253
e 227 230
e 230 280
e 230 294
e 231 254
e 236 251
e 239 295
e 246 292
e 247 262
e 250 269
e 255 291
e 260 279
e 261 291
e 263 277
e 267 290
e 275 284
e 278 287
e 287 294
